Linux optc-02-14 4.15.0-58-generic #64-Ubuntu SMP Tue Aug 6 11:12:41 UTC 2019 x86_64 x86_64 x86_64 GNU/Linux

top - 21:11:28 up 1 day, 11:12,  0 users,  load average: 0,82, 0,88, 0,93
Tasks: 290 gesamt,   1 laufend, 149 schlafend,   0 gestoppt,   0 Zombie
%CPU(s):  6,1 be,  0,1 sy,  0,0 ni, 93,8 un,  0,0 wa,  0,0 hi,  0,0 si,  0,0 st
KiB Spch : 97514992 gesamt, 95563264 frei,   649148 belegt,  1302584 Puff/Cache
KiB Swap:  8388604 gesamt,  8388604 frei,        0 belegt. 96124160 verfü Spch 

  PID USER      PR  NI    VIRT    RES    SHR S  %CPU %MEM     ZEIT+ BEFEHL
    1 root      20   0  242068   9524   6792 S   0,0  0,0   0:11.51 systemd
    2 root      20   0       0      0      0 S   0,0  0,0   0:00.12 kthreadd
    3 root      20   0       0      0      0 I   0,0  0,0   0:02.17 kworker/0:0
    4 root       0 -20       0      0      0 I   0,0  0,0   0:00.00 kworker/0:+
    6 root      20   0       0      0      0 I   0,0  0,0   0:00.00 kworker/u3+
    7 root       0 -20       0      0      0 I   0,0  0,0   0:00.00 mm_percpu_+
    8 root      20   0       0      0      0 S   0,0  0,0   0:00.00 ksoftirqd/0
    9 root      20   0       0      0      0 I   0,0  0,0   0:08.51 rcu_sched

hard time limit: 04:10:00
hard mem limit: 55100

SLURM jobID: 2182572

@01 /nfs/optimi/kombadon/IP/miplib2010/mspp16.mps.gz ===========
-----------------------------
Do 22. Aug 21:11:28 CEST 2019
-----------------------------
@03 1566501088
@05 7200
SCIP version 6.0.0 [precision: 8 byte] [memory: block] [mode: optimized] [LP solver: CPLEX 12.8.0.0] [GitHash: 41ab6e0014]
Copyright (C) 2002-2018 Konrad-Zuse-Zentrum fuer Informationstechnik Berlin (ZIB)

External codes: 
  Readline 7.0         GNU library for command line editing (gnu.org/s/readline)
  CPLEX 12.8.0.0       Linear Programming Solver developed by IBM (www.cplex.com)
  CppAD 20180000.0     Algorithmic Differentiation of C++ algorithms developed by B. Bell (www.coin-or.org/CppAD)
  ZLIB 1.2.11          General purpose compression library by J. Gailly and M. Adler (zlib.net)
  GMP 6.1.2            GNU Multiple Precision Arithmetic Library developed by T. Granlund (gmplib.org)
  bliss 0.73p          Computing Graph Automorphism Groups by T. Junttila and P. Kaski (http://www.tcs.hut.fi/Software/bliss/)

user parameter file <scip.set> not found - using default parameters

SCIP> 
SCIP> set load /home/optimi/bzfhende/opti/scip-opti/check/../settings/enable_treeeprofile.set
loaded parameter file </home/optimi/bzfhende/opti/scip-opti/check/../settings/enable_treeprofile.set>
SCIP> set misc referencevalue 363.000000000
misc/referencevalue = 363
SCIP> set limits time 7200
limits/time = 7200
SCIP> set limits nodes 2100000000
limits/nodes = 2100000000
SCIP> set limits memory 50000
limits/memory = 50000
SCIP> set lp advanced threads 1
lp/threads = 1
SCIP> set timing clocktype 1
timing/clocktype = 1
SCIP> set display freq 10000
display/freq = 10000
SCIP> set memory savefac 1.0
memory/savefac = 1
SCIP> set save /home/optimi/bzfhende/opti/scip-opti/check/treesize.estimation.jouurnal.3/bzfhende.MMMc.108_mspp16.scip.M640.enable_treeprofile.set
saved parameter file </home/optimi/bzfhende/opti/scip-opti/check/treesize.estimation.journal.3/bzfhende.MMMc.108_mspp16.scip.M640.enable_treeprofile.set>
SCIP> read /nfs/optimi/kombadon/IP/miplib2010/mspp16.mps.gz

read problem </nfs/optimi/kombadon/IP/miplib2010/mspp16.mps.gz>
============

original problem has 29280 variables (29280 bin, 0 int, 0 impl, 0 cont) and 561657 constraints
SCIP> display parameters

number of parameters = 2448
non-default parameter settings:
display/freq = 10000
limits/time = 7200
limits/nodes = 2100000000
limits/memory = 50000
lp/threads = 1
memory/savefac = 1
misc/referencevalue = 363
presolving/maxrestarts = 0
estimates/profile/enabled = TRUE
estimates/profile/maxdepthfactor = 10
estimates/profile/freq = 0

SCIP> optimize

Activating tree profile data collection
presolving:
(round 1, fast)       25215 del vars, 36781 del conss, 0 add conss, 25215 chg bounds, 991 chg sides, 0 chg coeffs, 0 upgd conss, 0 impls, 1726 clqs
(round 2, exhaustive) 25215 del vars, 36843 del conss, 0 add conss, 25215 chg bounds, 991 chg sides, 0 chg coeffs, 524798 upgd conss, 0 impls, 1726 clqs
(round 3, medium)     25215 del vars, 37053 del conss, 210 add conss, 25215 chg bounds, 1201 chg sides, 3360 chg coeffs, 524798 upgd conss, 0 impls, 1935 clqs
   (39.0s) sparsify aborted: 480/27555495 (0.0%) nonzeros canceled - in total 480 canceled nonzeros, 480 changed coefficients, 0 added nonzeros
   (55.3s) probing: 93/4065 (2.3%) - 0 fixings, 0 aggregations, 225 implications, 0 bound changes
   (55.3s) probing aborted: 50/50 successive totally useless probings
presolving (4 rounds: 4 fast, 3 medium, 2 exhaustive):
 25215 deleted vars, 37053 deleted constraints, 210 added constraints, 25215 tightened bounds, 0 added holes, 1201 changed sides, 4080 changed coefficients
 0 implications, 2160 cliques
presolved problem has 4065 variables (4065 bin, 0 int, 0 impl, 0 cont) and 524814 constraints
 522862 constraints of type <knapsack>
   1936 constraints of type <setppc>
     16 constraints of type <linear>
transformed objective value is always integral (scale: 11)
Presolving Time: 53.02

 time | node  | left  |LP iter|LP it/n| mem |mdpt |frac |vars |cons |cols |rows |cuts |confs|strbr|  dualbound   | primalbound  |  gap   
  140s|     1 |     0 |    14 |     - |8123M|   0 |   3 |4065 | 524k|4065 | 524k|   0 |  67 |   0 | 3.410000e+02 |      --      |    Inf 
s 141s|     1 |     0 |    14 |     - |8129M|   0 |   3 |4065 | 524k|4065 | 524k|   0 |  67 |   0 | 3.410000e+02 | 3.630000e+02 |   6.45%
  144s|     1 |     0 |    31 |     - |8182M|   0 |   7 |4065 | 524k|4065 | 524k|   3 |  67 |   0 | 3.410000e+02 | 3.630000e+02 |   6.45%
  149s|     1 |     0 |    58 |     - |8238M|   0 |  13 |4065 | 524k|4065 | 524k|   8 |  67 |   0 | 3.410000e+02 | 3.630000e+02 |   6.45%
  153s|     1 |     0 |    78 |     - |8295M|   0 |  10 |4065 | 524k|4065 | 524k|  15 |  67 |   0 | 3.410000e+02 | 3.630000e+02 |   6.45%
  156s|     1 |     0 |    92 |     - |8352M|   0 |  16 |4065 | 524k|4065 | 524k|  19 |  67 |   0 | 3.410000e+02 | 3.630000e+02 |   6.45%
  161s|     1 |     0 |   123 |     - |8408M|   0 |   8 |4065 | 524k|4065 | 524k|  25 |  67 |   0 | 3.410000e+02 | 3.630000e+02 |   6.45%
  165s|     1 |     0 |   139 |     - |8465M|   0 |  14 |4065 | 524k|4065 | 524k|  29 |  67 |   0 | 3.410000e+02 | 3.630000e+02 |   6.45%
  169s|     1 |     0 |   156 |     - |8522M|   0 |  18 |4065 | 524k|4065 | 524k|  35 |  67 |   0 | 3.410000e+02 | 3.630000e+02 |   6.45%
  173s|     1 |     0 |   180 |     - |8578M|   0 |  22 |4065 | 524k|4065 | 524k|  41 |  67 |   0 | 3.410000e+02 | 3.630000e+02 |   6.45%
  176s|     1 |     0 |   199 |     - |8635M|   0 |  22 |4065 | 524k|4065 | 524k|  48 |  67 |   0 | 3.410000e+02 | 3.630000e+02 |   6.45%
  181s|     1 |     0 |   230 |     - |8692M|   0 |  21 |4065 | 524k|4065 | 524k|  55 |  67 |   0 | 3.410000e+02 | 3.630000e+02 |   6.45%
  191s|     1 |     0 |   255 |     - |8749M|   0 |  12 |4065 | 524k|4065 | 524k|  62 |  67 |   0 | 3.410000e+02 | 3.630000e+02 |   6.45%
  195s|     1 |     0 |   290 |     - |8805M|   0 |  14 |4065 | 524k|4065 | 524k|  68 |  67 |   0 | 3.410000e+02 | 3.630000e+02 |   6.45%
  200s|     1 |     0 |   318 |     - |8862M|   0 |  21 |4065 | 524k|4065 | 524k|  76 |  67 |   0 | 3.410000e+02 | 3.630000e+02 |   6.45%
 time | node  | left  |LP iter|LP it/n| mem |mdpt |frac |vars |cons |cols |rows |cuts |confs|strbr|  dualbound   | primalbound  |  gap   
  204s|     1 |     0 |   356 |     - |8919M|   0 |  21 |4065 | 524k|4065 | 524k|  84 |  67 |   0 | 3.410000e+02 | 3.630000e+02 |   6.45%
  208s|     1 |     0 |   391 |     - |8975M|   0 |  22 |4065 | 524k|4065 | 524k|  92 |  67 |   0 | 3.410000e+02 | 3.630000e+02 |   6.45%
SCIP nodes: 1 Estimation: -1
  362s|     1 |     2 |   468 |     - |8998M|   0 |  22 |4065 | 524k|4065 | 524k|  92 |  67 |  22 | 3.410000e+02 | 3.630000e+02 |   6.45%
   (368.8s) symmetry computation started: requiring (bin +, int -, cont -), (fixed: bin -, int +, cont -)
   (472.9s) symmetry computation finished: 40 generators found (max: 1500, log10 of symmetry group size: 34.3)
   (472.9s) turning off presolver <domcol> for remaining computations in order to avoid conflicts
SCIP nodes: 2 Estimation: -1
Report 1
Time Elapsed: 764.61
  Tree Data        : 3 nodes (2 visited, 1 inner, 1 leaves, 1 open), progress: 0.5000
Tree Estimation    :       estim       value       trend  resolution      smooth
  wbe              :          -1           -           -           -           -
  tree profile     :          -1           -           -           -           -
  gap              :           1     0.93939     0.93939           1           1
  progress         :           3     0.50000     0.50000           1           3
  leaf-frequency   :           2     0.25000     0.75000           1           2
  ssg              :           3     0.54369    -0.45631           1           3
  open-nodes       :           4     1.00000     1.00000           1           4
End of Report 1

SCIP nodes: 4 Estimation: -1
Report 2
Time Elapsed: 809.67
  Tree Data        : 5 nodes (4 visited, 2 inner, 2 leaves, 1 open), progress: 0.7500
Tree Estimation    :       estim       value       trend  resolution      smooth
  wbe              :           3           -           -           -           -
  tree profile     :          -1           -           -           -           -
  gap              :           3     0.94913     0.79936           1           3
  progress         :           4     0.75000     0.44938           1           4
  leaf-frequency   :           3     0.37500     0.63037           1           3
  ssg              :           5     0.45631    -0.45573           1           5
  open-nodes       :           8     1.00000     0.85000           1           7
End of Report 2

Report 3
Time Elapsed: 814.92
  Tree Data        : 5 nodes (5 visited, 2 inner, 3 leaves, 0 open), progress: 1.0000
Tree Estimation    :       estim       value       trend  resolution      smooth
  wbe              :           4           -           -           -           -
  tree profile     :          -1           -           -           -           -
  gap              :           5     1.00000     0.67563           1           4
  progress         :           5     1.00000     0.40369           1           5
  leaf-frequency   :           5     0.50000     0.40709           1           4
  ssg              :           5     0.00000    -0.42840           1           5
  open-nodes       :           5     0.00000     0.62350           1           6
End of Report 3


SCIP Status        : problem is solved [optimal solution found]
Solving Time (sec) : 814.94
Solving Nodes      : 5
Primal Bound       : +3.63000000000000e+02 (11 solutions)
Dual Bound         : +3.63000000000000e+02
Gap                : 0.00 %

SCIP> display statistics

SCIP Status        : problem is solved [optimal solution found]
Total Time         :     836.21
  solving          :     814.94
  presolving       :      53.02 (included in solving)
  reading          :      21.27
  copying          :       3.40 (2 #copies) (minimal 1.66, maximal 1.74, average 1.70)
Original Problem   :
  Problem name     : mspp16
  Variables        : 29280 (29280 binary, 0 integer, 0 implicit integer, 0 continuous)
  Constraints      : 561657 initial, 561657 maximal
  Objective        : minimize, 4065 non-zeros (abs.min = 11, abs.max = 11)
Presolved Problem  :
  Problem name     : t_mspp16
  Variables        : 4065 (4065 binary, 0 integer, 0 implicit integer, 0 continuous)
  Constraints      : 524814 initial, 525069 maximal
  Objective        : minimize, 3585 non-zeros (abs.min = 1, abs.max = 1)
Presolvers         :   ExecTime  SetupTime  Calls  FixedVars   AggrVars   ChgTypes  ChgBounds   AddHoles    DelCons    AddCons   ChgSides   ChgCoefs
  boundshift       :       0.00       0.00      0          0          0          0          0          0          0          0          0          0
  convertinttobin  :       0.00       0.00      0          0          0          0          0          0          0          0          0          0
  domcol           :       1.94       0.00      1          0          0          0          0          0          0          0          0          0
  dualagg          :       0.00       0.00      0          0          0          0          0          0          0          0          0          0
  dualcomp         :       0.00       0.00      0          0          0          0          0          0          0          0          0          0
  dualinfer        :       0.00       0.00      0          0          0          0          0          0          0          0          0          0
  gateextraction   :       0.00       0.00      0          0          0          0          0          0          0          0          0          0
  implics          :       0.00       0.00      3          0          0          0          0          0          0          0          0          0
  inttobinary      :       0.00       0.00      0          0          0          0          0          0          0          0          0          0
  qpkktref         :       0.00       0.00      0          0          0          0          0          0          0          0          0          0
  redvub           :       0.00       0.00      0          0          0          0          0          0          0          0          0          0
  sparsify         :       3.47       0.00      1          0          0          0          0          0          0          0          0        480
  stuffing         :       0.00       0.00      0          0          0          0          0          0          0          0          0          0
  symbreak         :       0.00       0.00      0          0          0          0          0          0          0          0          0          0
  symmetry         :       0.00       0.00      0          0          0          0          0          0          0          0          0          0
  trivial          :       0.00       0.00      4          0          0          0          0          0          0          0          0          0
  tworowbnd        :       0.00       0.00      0          0          0          0          0          0          0          0          0          0
  dualfix          :       0.00       0.00      4          0          0          0          0          0          0          0          0          0
  genvbounds       :       0.00       0.00      0          0          0          0          0          0          0          0          0          0
  orbitalfixing    :       0.00       0.00      0          0          0          0          0          0          0          0          0          0
  probing          :      16.35       0.00      1          0          0          0          0          0          0          0          0          0
  pseudoobj        :       0.00       0.00      0          0          0          0          0          0          0          0          0          0
  vbounds          :       0.00       0.00      2          0          0          0          0          0          0          0          0          0
  knapsack         :      18.31       0.21      5          0          0          0          0          0        210        210        210       3600
  setppc           :       0.01       0.00      5          0          0          0          0          0          0          0          0          0
  linear           :       9.00       2.88      6      25215          0          0      25215          0      36843          0        991          0
  logicor          :       0.00       0.00      0          0          0          0          0          0          0          0          0          0
  benders          :       0.00       0.00      0          0          0          0          0          0          0          0          0          0
  components       :       1.51       0.00      1          0          0          0          0          0          0          0          0          0
  root node        :          -          -      -       3884          -          -       3884          -          -          -          -          -
Constraints        :     Number  MaxNumber  #Separate #Propagate    #EnfoLP    #EnfoRelax  #EnfoPS    #Check   #ResProp    Cutoffs    DomReds       Cuts    Applied      Conss   Children
  benderslp        :          0          0          0          0         48          0          0         35          0          0          0          0          0          0          0
  integral         :          0          0          0          0         48          0          0         35          0          1        188          0          0        205          4
  knapsack         :     522862     522862         15       9629          0          0          0         30        981         21       1157        184         18          0          0
  setppc           :       1936+      2107         15       9608          0          0          0         13        797         12        288          0          0          0          0
  linear           :         16         16         15       9008          0          0          0         11          0          0          0          0          0          0          0
  logicor          :          0+       100         15        231          0          0          0          0         17         10          2          5          0          0          0
  benders          :          0          0          0          0          0          0          0         12          0          0          0          0          0          0          0
  countsols        :          0          0          0          0          0          0          0         12          0          0          0          0          0          0          0
  components       :          0          0          0          0          0          0          0          0          0          0          0          0          0          0          0
Constraint Timings :  TotalTime  SetupTime   Separate  Propagate     EnfoLP     EnfoPS     EnfoRelax   Check    ResProp    SB-Prop
  benderslp        :       0.00       0.00       0.00       0.00       0.00       0.00       0.00       0.00       0.00       0.00
  integral         :     410.91       0.00       0.00       0.00     410.90       0.00       0.00       0.01       0.00       0.00
  knapsack         :      70.87       0.21      11.77      46.82       0.00       0.00       0.00       5.25       0.00       6.82
  setppc           :      14.06       0.00       0.00      10.29       0.00       0.00       0.00       0.01       0.00       3.76
  linear           :       2.89       2.88       0.00       0.00       0.00       0.00       0.00       0.01       0.00       0.00
  logicor          :       0.11       0.00       0.00       0.00       0.00       0.00       0.00       0.00       0.00       0.11
  benders          :       0.00       0.00       0.00       0.00       0.00       0.00       0.00       0.00       0.00       0.00
  countsols        :       0.00       0.00       0.00       0.00       0.00       0.00       0.00       0.00       0.00       0.00
  components       :       0.00       0.00       0.00       0.00       0.00       0.00       0.00       0.00       0.00       0.00
Propagators        : #Propagate   #ResProp    Cutoffs    DomReds
  dualfix          :          1          0          0          0
  genvbounds       :          0          0          0          0
  nlobbt           :          0          0          0          0
  obbt             :          0          0          0          0
  orbitalfixing    :          4          0          0         82
  probing          :          0          0          0          0
  pseudoobj        :        138          0          0          0
  redcost          :        115          0          0       6315
  rootredcost      :          1          0          0          0
  vbounds          :       9492          0          0          0
Propagator Timings :  TotalTime  SetupTime   Presolve  Propagate    ResProp    SB-Prop
  dualfix          :       0.00       0.00       0.00       0.00       0.00       0.00
  genvbounds       :       0.03       0.00       0.00       0.03       0.00       0.00
  nlobbt           :       0.00       0.00       0.00       0.00       0.00       0.00
  obbt             :       0.00       0.00       0.00       0.00       0.00       0.00
  orbitalfixing    :     104.17       0.00       0.00     104.17       0.00       0.00
  probing          :      16.35       0.00      16.35       0.00       0.00       0.00
  pseudoobj        :       0.00       0.00       0.00       0.00       0.00       0.00
  redcost          :      13.02       0.00       0.00      13.02       0.00       0.00
  rootredcost      :       0.01       0.00       0.00       0.01       0.00       0.00
  vbounds          :       0.00       0.00       0.00       0.00       0.00       0.00
Orbital fixing     :
  vars fixed to 0  :         82
  vars fixed to 1  :          0
Conflict Analysis  :       Time      Calls    Success    DomReds  Conflicts   Literals    Reconvs ReconvLits   Dualrays   Nonzeros   LP Iters   (pool size: [10000,10000])
  propagation      :       0.00         40         31          -         93       77.7         10        4.0          -          -          -
  infeasible LP    :       0.00          1          1          -          2       69.0          0        0.0          0        0.0          0
  bound exceed. LP :     202.96        191        364          -        254       28.2          1        3.0        173        1.0       1097
  strong branching :       0.00          0          0          -          0        0.0          0        0.0          -          -          0
  pseudo solution  :       0.00          0          0          -          0        0.0          0        0.0          -          -          -
  applied globally :       0.01          -          -        173        295       23.2          -          -        173          -          -
  applied locally  :          -          -          -          0          0        0.0          -          -          0          -          -
Separators         :   ExecTime  SetupTime      Calls    Cutoffs    DomReds       Cuts    Applied      Conss
  cut pool         :       0.00                    29          -          -        339          -          -    (maximal pool size: 678)
  aggregation      :       1.58       0.00         15          0          0          0          0          0
  cgmip            :       0.00       0.00          0          0          0          0          0          0
  clique           :       0.02       0.00         15          0          0          0          0          0
  closecuts        :       0.00       0.00          0          0          0          0          0          0
  cmir             :       0.00       0.00          0          0          0          0         64          0
  convexproj       :       0.00       0.00          0          0          0          0          0          0
  disjunctive      :       0.00       0.00          0          0          0          0          0          0
  eccuts           :       0.00       0.00          0          0          0          0          0          0
  flowcover        :       0.00       0.00          0          0          0          0          1          0
  gauge            :       0.00       0.00          0          0          0          0          0          0
  gomory           :       0.59       0.00         10          0          0          0          6          0
  impliedbounds    :       0.00       0.00         15          0          0          0          0          0
  intobj           :       0.00       0.00          0          0          0          0          0          0
  mcf              :       0.00       0.00          0          0          0          0          0          0
  oddcycle         :       0.00       0.00          0          0          0          0          0          0
  rapidlearning    :       0.00       0.00          0          0          0          0          0          0
  strongcg         :       0.84       0.00         15          0          0          0          3          0
  zerohalf         :       0.33       0.00         15          0          0          0          0          0
Pricers            :   ExecTime  SetupTime      Calls       Vars
  problem variables:       0.00          -          0          0
Branching Rules    :   ExecTime  SetupTime   BranchLP  BranchExt   BranchPS    Cutoffs    DomReds       Cuts      Conss   Children
  allfullstrong    :       0.00       0.00          0          0          0          0          0          0          0          0
  cloud            :       0.00       0.00          0          0          0          0          0          0          0          0
  distribution     :       0.00       0.00          0          0          0          0          0          0          0          0
  fullstrong       :       0.00       0.00          0          0          0          0          0          0          0          0
  inference        :       0.00       0.00          0          0          0          0          0          0          0          0
  leastinf         :       0.00       0.00          0          0          0          0          0          0          0          0
  lookahead        :       0.00       0.00          0          0          0          0          0          0          0          0
  mostinf          :       0.00       0.00          0          0          0          0          0          0          0          0
  multaggr         :       0.00       0.00          0          0          0          0          0          0          0          0
  nodereopt        :       0.00       0.00          0          0          0          0          0          0          0          0
  pscost           :       0.00       0.00          0          0          0          0          0          0          0          0
  random           :       0.00       0.00          0          0          0          0          0          0          0          0
  relpscost        :     410.90       0.00         48          0          0          1        188          0        205          4
Primal Heuristics  :   ExecTime  SetupTime      Calls      Found       Best
  LP solutions     :       0.00          -          -          0          0
  relax solutions  :       0.00          -          -          0          0
  pseudo solutions :       0.00          -          -          0          0
  strong branching :       0.00          -          -          0          0
  actconsdiving    :       0.00       0.00          0          0          0
  alns             :       4.79       0.00          1          0          0
  bound            :       0.00       0.00          0          0          0
  clique           :      12.77       0.00          1          0          0
  coefdiving       :       0.00       0.00          0          0          0
  completesol      :       0.00       0.00          0          0          0
  conflictdiving   :       0.00       0.00          0          0          0
  crossover        :       0.00       0.00          0          0          0
  dins             :       0.00       0.00          0          0          0
  distributiondivin:       0.00       0.00          0          0          0
  dualval          :       0.00       0.00          0          0          0
  farkasdiving     :       0.00       0.00          0          0          0
  feaspump         :      36.04       0.00          1          1          0
  fixandinfer      :       0.00       0.00          0          0          0
  fracdiving       :       0.00       0.00          0          0          0
  gins             :       0.00       0.00          0          0          0
  guideddiving     :       0.00       0.00          0          0          0
  indicator        :       0.00       0.00          0          0          0
  intdiving        :       0.00       0.00          0          0          0
  intshifting      :       0.00       0.00          0          0          0
  linesearchdiving :       0.00       0.00          0          0          0
  localbranching   :       0.00       0.00          0          0          0
  locks            :      20.44       0.00          1          0          0
  lpface           :       0.00       0.00          0          0          0
  mpec             :       0.00       0.00          0          0          0
  multistart       :       0.00       0.00          0          0          0
  mutation         :       0.00       0.00          0          0          0
  nlpdiving        :       0.00       0.00          0          0          0
  objpscostdiving  :       0.00       0.00          0          0          0
  octane           :       0.00       0.00          0          0          0
  ofins            :       0.00       0.00          0          0          0
  oneopt           :       0.32       0.00          1          0          0
  proximity        :       0.00       0.00          0          0          0
  pscostdiving     :       0.00       0.00          0          0          0
  randrounding     :      10.15       0.00         16          0          0
  rens             :       2.81       0.00          1          0          0
  reoptsols        :       0.00       0.00          0          0          0
  repair           :       0.00       0.00          0          0          0
  rins             :       0.00       0.00          0          0          0
  rootsoldiving    :       0.00       0.00          0          0          0
  rounding         :       0.99       0.00         63          0          0
  shiftandpropagate:      16.27       0.00          1          0          0
  shifting         :       4.19       0.00         16         10          1
  simplerounding   :       0.00       0.00          0          0          0
  subnlp           :       0.00       0.00          0          0          0
  trivial          :       0.55       0.00          2          0          0
  trivialnegation  :       0.00       0.00          0          0          0
  trysol           :       0.00       0.00          0          0          0
  twoopt           :       0.00       0.00          0          0          0
  undercover       :       0.00       0.00          0          0          0
  vbounds          :      17.26       0.00          1          0          0
  veclendiving     :       0.00       0.00          0          0          0
  zeroobj          :       0.00       0.00          0          0          0
  zirounding       :       0.03       0.00          2          0          0
  other solutions  :          -          -          -          0          -
Diving Statistics  :      Calls      Nodes   LP Iters Backtracks  Conflicts   MinDepth   MaxDepth   AvgDepth  RoundSols  NLeafSols  MinSolDpt  MaxSolDpt  AvgSolDpt
  actconsdiving    :          0          -          -          -          -          -          -          -          -          -          -          -          -
  coefdiving       :          0          -          -          -          -          -          -          -          -          -          -          -          -
  conflictdiving   :          0          -          -          -          -          -          -          -          -          -          -          -          -
  distributiondivin:          0          -          -          -          -          -          -          -          -          -          -          -          -
  farkasdiving     :          0          -          -          -          -          -          -          -          -          -          -          -          -
  fracdiving       :          0          -          -          -          -          -          -          -          -          -          -          -          -
  guideddiving     :          0          -          -          -          -          -          -          -          -          -          -          -          -
  linesearchdiving :          0          -          -          -          -          -          -          -          -          -          -          -          -
  pscostdiving     :          0          -          -          -          -          -          -          -          -          -          -          -          -
  veclendiving     :          0          -          -          -          -          -          -          -          -          -          -          -          -
Neighborhoods      :      Calls  SetupTime  SolveTime SolveNodes       Sols       Best       Exp3  EpsGreedy        UCB TgtFixRate  Opt  Inf Node Stal  Sol  Usr Othr Actv
  rens             :          0       0.00       0.00          0          0          0    0.00000   -1.00000    1.00000      0.900    0    0    0    0    0    0    0    1
  rins             :          0       0.00       0.00          0          0          0    0.00000   -1.00000    1.00000      0.900    0    0    0    0    0    0    0    1
  mutation         :          0       0.00       0.00          0          0          0    0.00000   -1.00000    1.00000      0.900    0    0    0    0    0    0    0    1
  localbranching   :          0       0.00       0.00          0          0          0    0.00000   -1.00000    1.00000      0.900    0    0    0    0    0    0    0    1
  crossover        :          0       0.00       0.00          0          0          0    0.00000   -1.00000    1.00000      0.900    0    0    0    0    0    0    0    1
  proximity        :          0       0.00       0.00          0          0          0    0.00000   -1.00000    1.00000      0.900    0    0    0    0    0    0    0    1
  zeroobjective    :          1       2.46       2.10          0          0          0    0.00000   -1.00000    1.00000      0.700    0    1    0    0    0    0    0    1
  dins             :          0       0.00       0.00          0          0          0    0.00000   -1.00000    1.00000      0.900    0    0    0    0    0    0    0    1
LP                 :       Time      Calls Iterations  Iter/call   Iter/sec  Time-0-It Calls-0-It    ItLimit
  primal LP        :      11.68          2          0       0.00       0.00      11.68          2
  dual LP          :      67.30         65       1054      17.86      15.66       0.98          6
  lex dual LP      :       0.00          0          0       0.00          -
  barrier LP       :       0.00          0          0       0.00          -       0.00          0
  resolve instable :       0.00          0          0       0.00          -
  diving/probing LP:      47.34         14        190      13.57       4.01
  strong branching :     176.63        262       4955      18.91      28.05          -          -          0
    (at root node) :          -         22       1582      71.91          -
  conflict analysis:     201.44        110       1097       9.97       5.45
B&B Tree           :
  number of runs   :          1
  nodes            :          5 (2 internal, 3 leaves)
  feasible leaves  :          0
  infeas. leaves   :          3
  objective leaves :          0
  nodes (total)    :          5 (2 internal, 3 leaves)
  nodes left       :          0
  max depth        :          2
  max depth (total):          2
  backtracks       :          0 (0.0%)
  early backtracks :          0 (0.0%)
  nodes exc. ref.  :          0 (0.0%)
  delayed cutoffs  :          0
  repropagations   :          1 (0 domain reductions, 0 cutoffs)
  avg switch length:       2.40
  switching time   :       6.16
Root Node          :
  First LP value   : +3.41000000000000e+02
  First LP Iters   :         14 (0.89 Iter/sec)
  First LP Time    :      15.80
  Final Dual Bound : +3.41000000000000e+02
  Final Root Iters :        391
  Root LP Estimate : +3.41849986823060e+02
Solution           :
  Solutions found  :         11 (1 improvements)
  First Solution   : +3.63000000000000e+02   (in run 1, after 1 nodes, 140.86 seconds, depth 0, found by <shifting>)
  Gap First Sol.   :       6.45 %
  Gap Last Sol.    :       6.45 %
  Primal Bound     : +3.63000000000000e+02   (in run 1, after 1 nodes, 140.86 seconds, depth 0, found by <shifting>)
  Dual Bound       : +3.63000000000000e+02
  Gap              :       0.00 %
  Avg. Gap         :      22.30 % (18172.19 primal-dual integral)
  Tree Data        : 5 nodes (5 visited, 2 inner, 3 leaves, 0 open), progress: 1.0000
Tree Estimation    :       estim       value       trend  resolution      smooth
  wbe              :           5           -           -           -           -
  tree profile     :          -1           -           -           -           -
  gap              :           5     1.00000     0.67563           1           4
  progress         :           5     1.00000     0.40369           1           5
  leaf-frequency   :           5     0.50000     0.40709           1           4
  ssg              :           5     0.00000    -0.42840           1           5
  open-nodes       :           5     0.00000     0.62350           1           6


SCIP> checksol

check best solution
solution is feasible in original problem
Violation          :    absolute    relative
  bounds           : 0.00000e+00 0.00000e+00
  integrality      : 0.00000e+00           -
  LP rows          : 0.00000e+00 0.00000e+00
  constraints      : 0.00000e+00 0.00000e+00

SCIP> write sol /local/tmp/bzfhende-tmpdir/bzfhende.MMMc.108_mspp16.scip.M640.enaable_treeprofile.sol

written solution information to file </local/tmp/bzfhende-tmpdir/bzfhende.MMMc.108_mspp16.scip.M640.enable_treeprofile.sol>

SCIP> quit

Disabling tree profile data collection
Read MPS: 1
MIP has 29280 vars and 561657 constraints
Read SOL: 1
Objective value computed by solver: 363

Integrality tolerance: 1/10000
Linear tolerance: 1/10000
Objective tolerance: 1/10000

Check SOL: Integrality 1 Constraints 1 Objective 1
Maximum violations: Integrality 0 Constraints 0 Objective 0
@04 1566502036
-----------------------------
Do 22. Aug 21:27:16 CEST 2019
-----------------------------

=ready=
